p cnf 15 23
15 -14 10 0
15 13 -10 0
-15 13 -4 0
-15 -7 3 0
15 7 2 0
14 13 -10 0
-14 -12 -6 0
14 -10 1 0
13 12 -4 0
13 -11 6 0
13 -9 4 0
13 -8 3 0
13 2 1 0
-12 -8 -7 0
12 -5 -3 0
-11 8 -1 0
10 -9 -7 0
-10 -9 -4 0
-10 -7 -5 0
10 7 -2 0
10 5 -3 0
-9 5 -2 0
-5 3 -1 0
